Total weight: 894.8072950224248
Route 1: 0 26 7 8 10 11 9 6 4 2 1 3 5 0 
Route 2: 0 13 17 18 19 15 16 14 12 0 
Route 3: 0 20 24 25 27 29 30 28 39 23 22 21 0 
Route 4: 0 32 33 31 35 38 37 36 34 0 
Route 5: 0 43 42 41 40 44 46 45 48 51 50 52 49 47 0 
Route 6: 0 55 54 53 56 58 60 57 59 69 0 
Route 7: 0 67 65 63 62 74 72 61 64 68 66 0 
Route 8: 0 81 78 76 71 70 73 77 79 80 0 
Route 9: 0 90 87 86 83 82 84 85 88 89 91 0 
Route 10: 0 98 96 95 94 92 93 97 100 99 75 0 
